1000
[201,204,209,210,212,217,218,219,220,223,224,225,226,227,228,229,230,231,232,233,234,235,236,237,239,240,243,244,245,246,247,248,250,251,252,254,255,256,259,260,261,262,263,264,267,268,271,272,273,275,277,278,279,280,281,283,284,286,287,288,289,290,291,293,294,295,296,297,298,299,301,302,303,304,306,307,308,309,311,312,313,315,318,319,321,324,325,326,327,329,330,333,334,336,337,338,339,341,342,343,345,346,347,351,352,354,355,357,360,361,362,363,364,365,366,369,370,375,376,377,378,379,380,381,385,388,389,390,391,393,395,396,398,399,400,401,402,403,404,405,406,407,408,409,410,412,413,414,415,416,417,418,420,422,423,424,425,426,428,429,430,431,432,433,435,438,440,441,442,443,444,445,447,448,449,450,454,456,458,459,460,461,462,463,464,465,467,468,470,471,472,474,476,477,478,479,480,481,484,485,486,487,488,489,490,491,492,495,497,498,499,500,501,502,503,504,505,506,508,509,512,513,514,516,517,520,521,522,523,524,525,527,528,529,530,531,532,533,534,537,539,541,542,543,545,547,548,549,550,552,553,554,555,556,557,558,559,560,561,563,564,565,566,568,569,570,571,574,575,576,577,578,579,581,582,584,586,587,588,589,590,591,592,593,595,596,597,598,599,600,601,602,603,604,605,606,609,610,612,613,615,617,618,619,621,623,625,628,630,631,632,633,634,636,637,638,640,642,644,646,649,650,651,652,653,654,655,656,657,658,659,660,663,664,665,666,667,668,669,670,671,673,675,676,677,678,681,682,683,684,686,687,689,690,691,692,693,694,696,699,700,701,702,703,704,705,707,710,711,712,715,716,717,718,719,720,721,722,723,724,726,729,730,731,732,733,734,735,737,738,739,741,742,743,744,745,746,749,750,751,752,753,754,756,758,759,760,761,762,765,766,768,769,772,773,774,775,776,777,778,779,780,781,783,784,785,787,788,790,791,792,793,797,798,799]
[1,1,1,4,2,2,1,2,3,2,2,1,1,1,3,1,1,1,1,1,3,1,3,1,1,2,3,1,2,1,2,1,1,2,1,1,2,2,3,2,2,2,3,3,2,2,1,3,2,2,1,1,1,1,2,2,2,1,2,1,2,2,2,3,1,2,3,1,1,3,2,1,1,1,2,1,1,1,3,2,2,1,1,1,3,2,4,1,3,3,1,2,1,2,1,2,1,1,2,1,2,2,2,2,2,1,1,2,1,2,3,1,3,2,1,2,2,3,3,1,1,3,1,2,4,2,1,1,2,1,1,2,1,3,1,2,2,3,2,1,3,1,2,1,2,2,1,2,1,2,2,3,1,3,2,1,3,1,1,1,2,1,2,1,1,2,1,1,1,3,2,2,2,1,1,1,3,1,2,2,1,1,2,2,2,3,1,3,1,1,1,3,1,3,2,2,1,1,2,3,1,3,2,2,1,1,1,1,1,1,1,2,1,2,2,1,3,1,1,2,5,2,2,1,3,1,1,2,2,2,4,3,1,1,2,1,1,1,2,3,4,2,1,2,1,1,2,2,1,2,3,1,1,1,1,1,1,2,1,2,2,1,2,1,2,1,1,1,1,2,2,1,2,1,2,2,2,1,5,1,1,1,1,1,3,1,3,1,3,2,4,2,2,2,3,1,1,1,1,3,1,1,1,1,1,5,2,2,1,3,1,1,2,2,1,3,2,1,1,2,3,2,1,1,1,2,1,2,1,2,1,1,1,1,1,1,3,3,2,2,3,1,2,1,1,2,1,1,2,2,1,1,1,1,1,2,2,2,1,2,3,1,3,3,2,4,1,1,3,3,2,1,1,1,3,1,1,2,2,1,3,2,2,3,1,1,1,1,1,4,2,1,2,2,1,3,2,1,1,5,1,2,1,1,2,2,1,1,2,1,1,2,1,1,3,1,1,2,2,3,1,1,2,1,1,1,2,2,3,2,1,2,1,1,2]
